10
33
0
47
30
58
17
0
0
17
86
0
35
0
43
0
16
21
90
0
11
7
0
7
25
0
15
11
19
10
22
0
0
14
9
10
12
17
0
0
29
0
0
0
11
0
0
0
34
26
0
0
25
0
16
49
0
14
0
0
12
0
6
12
23
0
0
0
0
11
0
11
0
23
0
10
0
10
12
11
41
0
27
21
44
15
17
16
8
48
18
10
0
6
8
9
38
12
29
7
